c :: WCTIME=0.0873241
c :: command line :: ./optimal-finder cvc-plus_3.cnf -minimal
c :: version :: 160
c :: reference filename :: cvc-plus_3.cnf
c :: reference encoding :: 39
c i 2 6 12 3 7 13 5 11 19 0
c :: inputs :: 2 6 12 3 7 13 5 11 19 
c :: clause minimization :: 0
c :: assignments analyzed :: 11127
c :: reference encoding :: variables :: 18 :: clauses :: 39
c :: optimal encoding :: variables :: 9 :: clauses :: 96
c :: optimal minimal encoding :: 96
p cnf 19 96
3 -5 2 0
-2 3 5 0
-2 -5 -3 0
-3 2 5 0
11 -5 -6 7 0
11 -5 -7 6 0
11 3 -6 7 0
11 3 -7 6 0
11 2 -7 6 0
-6 2 -7 -11 0
-6 -5 -7 -11 0
7 2 6 -11 0
-6 3 -7 -11 0
11 2 -6 7 0
7 -5 6 -11 0
7 3 6 -11 0
-13 3 -19 -12 6 0
19 -11 -12 13 6 0
-13 -6 -7 -12 19 0
11 -13 -12 -6 19 0
-13 3 -19 -12 7 0
-13 6 -19 -12 -11 0
19 2 -12 13 -11 0
19 3 -12 13 -11 0
-13 3 12 19 6 0
11 -13 -7 -12 19 0
-13 7 -19 -12 2 0
-13 7 -19 -12 6 0
-13 7 -19 -12 -11 0
-13 -5 -19 -12 6 0
-13 -5 -19 -12 7 0
-13 -5 -19 -12 -11 0
-13 6 12 19 -11 0
-13 2 12 19 7 0
19 -5 -12 13 -11 0
19 -11 -12 13 7 0
19 3 -12 13 7 0
19 3 -12 13 6 0
12 2 -19 13 -11 0
12 2 -19 13 7 0
12 2 -19 13 6 0
11 19 -7 13 12 0
19 -5 -12 13 6 0
-6 7 -2 5 -11 0
-6 7 -3 5 -11 0
11 -13 -19 -6 12 0
11 -13 -7 -19 12 0
11 -6 -19 -12 13 0
11 -7 -19 -12 13 0
-13 -6 -7 -19 12 0
-13 3 -19 -12 -11 0
-13 7 12 19 6 0
12 -5 -19 13 -11 0
-13 -5 12 19 7 0
12 -6 -7 13 19 0
-13 3 12 19 -11 0
-13 2 12 19 -11 0
-13 -11 12 19 -5 0
-13 -11 12 19 7 0
-13 3 12 19 7 0
-13 6 -19 -12 2 0
-13 -11 -19 -12 2 0
-13 2 12 19 6 0
12 7 -19 13 -11 0
19 2 -12 13 6 0
12 6 -19 13 -11 0
11 6 -3 -2 7 0
11 6 5 -3 7 0
11 -6 -7 -3 -2 0
11 -6 -7 -3 5 0
11 12 13 -6 19 0
-13 -5 12 19 6 0
12 3 -19 13 6 0
12 7 -19 13 6 0
12 3 -19 13 7 0
12 -5 -19 13 7 0
12 -11 -19 13 3 0
12 6 -19 13 -5 0
19 6 -12 13 7 0
19 2 -12 13 7 0
-2 -3 -7 6 -11 0
-3 6 -7 5 -11 0
-6 -7 -19 -12 13 0
19 7 -12 13 -5 0
11 12 13 19 -2 -3 0
-13 12 -19 -6 5 -3 0
11 -19 -12 13 5 -3 0
-13 12 -19 -7 5 -2 0
-13 12 -19 11 5 -2 0
11 -13 -12 19 5 -3 0
12 19 -7 13 5 -2 0
-13 19 -7 -12 -3 -2 0
-13 19 -12 -6 -3 -2 0
12 19 13 -2 -6 5 0
-6 -19 -12 13 5 -3 0
-19 -7 -12 13 5 -3 0
